22	0

0	3	2	3	5
3	3	4	6	9
9	3	6	7	9
9	1	7
8	3	6	7	9
8	3	10	11	12
3	1	8
1	4	10	11	12	13
9	3	10	11	12
6	2	14	15
5	3	14	15	16
6	2	14	15
5	3	14	15	16
6	2	17	19
4	2	17	18
2	2	17	18
5	2	20	21
6	2	19	21
3	1	20
4	1	22
6	1	22
0	0
